50
18056

80 492
364 780
220 228
585 257
978 94
907 312
710 826
505 98
185 378
231 324
576 209
570 696
97 666
525 850
86 560
614 6
760 761
487 549
160 959
191 738
533 17
309 498
25 125
467 886
592 651
37 877
471 79
884 733
708 293
672 288
627 175
114 142
262 295
89 802
971 230
446 493
474 459
375 511
564 136
214 322
375 558
415 758
846 943
132 515
226 254
186 793
823 550
417 588
850 960
134 574
